
  32    1
  10

   0   0   7 2 3 4 5 6 7 11 
  10   1   7 29 24 22 18 14 13 10 
   4   1   7 31 30 29 28 24 12 9 
   8   3   6 30 27 24 23 18 8 
   5   3   7 28 25 23 22 21 16 13 
   4   2   5 27 25 20 17 12 
   6   3   4 24 20 15 12 
   8   3   5 26 25 22 20 17 
   2   3   5 26 22 21 20 17 
   7   1   4 28 25 17 15 
   2   1   3 24 21 17 
  10   2   3 23 22 21 
   1   1   3 27 20 19 
   3   2   3 26 21 20 
   4   1   2 23 19 
   5   3   2 24 20 
   6   2   1 19 
   1   1   1 19 
   2   4   1 32
   2   1   1 32
   4   2   1 32
   6   1   1 32
   2   2   1 32
   7   2   1 32
   3   1   1 32
   2   3   1 32
   7   2   1 32
   9   1   1 32
   6   2   1 32
   4   4   1 32
   5   2   1 32
   0   0   0 
